RT is False
Default write of storage_offers_DA.csv just to have a file (but constraint should be inactive)
Reading model...
...model read.
creating competitive generators file...
...competitive generators recorded.
Loading data...
.. day-ahead data with real-time VRE data read.
Compiling instance...
...instance created.
Creating Offer Mitigation (model will solve as dispatch if TRUE)...
Solving...

Welcome to IBM(R) ILOG(R) CPLEX(R) Interactive Optimizer 12.9.0.0
  with Simplex, Mixed Integer & Barrier Optimizers
5725-A06 5725-A29 5724-Y48 5724-Y49 5724-Y54 5724-Y55 5655-Y21
Copyright IBM Corp. 1988, 2019.  All Rights Reserved.

Type 'help' for a list of available commands.
Type 'help' followed by a command name for more
information on commands.

CPLEX> Logfile 'cplex.log' closed.
Logfile 'C:\Users\llavin\Desktop\test919\logs\tmp3jqe5vvl.cplex.log' open.
CPLEX> New value for parallel optimization mode: -1
CPLEX> New value for mixed integer optimality gap tolerance: 0.01
CPLEX> New value for integrality tolerance: 1e-09
CPLEX> New value for feasibility tolerance: 0.01
CPLEX> New value for deterministic time limit in ticks: 75000
CPLEX> Problem 'C:\Users\llavin\Desktop\test919\logs\tmprw2gcrnz.pyomo.lp' read.
Read time = 0.06 sec. (3.04 ticks)
CPLEX> Problem name         : C:\Users\llavin\Desktop\test919\logs\tmprw2gcrnz.pyomo.lp
Objective sense      : Minimize
Variables            :   26081  [Nneg: 1,  Box: 21616,  Free: 4464]
Objective nonzeros   :    2496
Linear constraints   :   27515  [Less: 14006,  Greater: 4416,  Equal: 9093]
  Nonzeros           :   89267
  RHS nonzeros       :   12264

Variables            : Min LB: -5000.000        Max UB: 1000000.       
Objective nonzeros   : Min   : 15.73158         Max   : 124.0997       
Linear constraints   :
  Nonzeros           : Min   : 0.8500000        Max   : 3000.000       
  RHS nonzeros       : Min   : 0.05833333       Max   : 5000.000       
CPLEX> CPXPARAM_Parallel                                -1
CPXPARAM_Simplex_Tolerances_Feasibility          0.01
CPXPARAM_DetTimeLimit                            75000
CPXPARAM_MIP_Tolerances_MIPGap                   0.01
CPXPARAM_MIP_Tolerances_Integrality              1.0000000000000001e-09
Parallel mode: opportunistic, using up to 32 threads for concurrent optimization.
Tried aggregator 1 time.
LP Presolve eliminated 21353 rows and 15462 columns.
Aggregator did 775 substitutions.
Reduced LP has 5387 rows, 9844 columns, and 31805 nonzeros.
Presolve time = 0.06 sec. (30.45 ticks)
Symmetry aggregator did 5563 additional substitutions.

Iteration log . . .
Iteration:     1   Dual objective     =             0.000000
Perturbation started.
Iteration:   101   Dual objective     =             0.000000
Iteration:   329   Dual objective     =             1.195672
Iteration:   586   Dual objective     =             1.752731
Iteration:   841   Dual objective     =             1.900096
Iteration:  1035   Dual objective     =             2.014616
Iteration:  1307   Dual objective     =             2.063607
Iteration:  1554   Dual objective     =             2.094370
Iteration:  1777   Dual objective     =             2.112853
Iteration:  1992   Dual objective     =             2.132091
Iteration:  2191   Dual objective     =             2.143833
Iteration:  2462   Dual objective     =             2.157781
Iteration:  2846   Dual objective     =          4827.925394
Removing perturbation.
Dual superbasis not built.
Using devex.

Primal simplex solved model.


Primal simplex - Optimal:  Objective =  5.0052755632e+03
Solution time =    0.17 sec.  Iterations = 1628 (1097)
Deterministic time = 76.64 ticks  (445.56 ticks/sec)

CPLEX> Solution written to file 'C:\Users\llavin\Desktop\test919\logs\tmp_fpa3zv7.cplex.sol'.
CPLEX> Exporting results... 
...storage offer mitigation file created
Converting model to MPEC...
...converted
NOTE: initial MIP solve with only storage competitive to get feasible solution
Solving...

Welcome to IBM(R) ILOG(R) CPLEX(R) Interactive Optimizer 12.9.0.0
  with Simplex, Mixed Integer & Barrier Optimizers
5725-A06 5725-A29 5724-Y48 5724-Y49 5724-Y54 5724-Y55 5655-Y21
Copyright IBM Corp. 1988, 2019.  All Rights Reserved.

Type 'help' for a list of available commands.
Type 'help' followed by a command name for more
information on commands.

CPLEX> Logfile 'cplex.log' closed.
Logfile 'C:\Users\llavin\Desktop\test919\logs\tmpzrjw6y3e.cplex.log' open.
CPLEX> New value for parallel optimization mode: -1
CPLEX> New value for mixed integer optimality gap tolerance: 0.01
CPLEX> New value for integrality tolerance: 1e-09
CPLEX> New value for feasibility tolerance: 0.01
CPLEX> New value for deterministic time limit in ticks: 75000
CPLEX> Problem 'C:\Users\llavin\Desktop\test919\logs\tmp8jzeutwx.pyomo.lp' read.
Read time = 0.23 sec. (14.78 ticks)
CPLEX> Problem name         : C:\Users\llavin\Desktop\test919\logs\tmp8jzeutwx.pyomo.lp
Objective sense      : Maximize
Variables            :   53805  [Nneg: 1,  Box: 22000,  Free: 4464,
                                 Binary: 27340]
Objective nonzeros   :    8973
Linear constraints   :  123205  [Less: 41346,  Greater: 59096,  Equal: 22763]
  Nonzeros           :  291794
  RHS nonzeros       :   67394

Variables            : Min LB: -5000.000        Max UB: 1000000.       
Objective nonzeros   : Min   : 0.05833333       Max   : 833.8667       
Linear constraints   :
  Nonzeros           : Min   : 0.05833333       Max   : 1000000.       
  RHS nonzeros       : Min   : 0.05833333       Max   : 1000000.       
CPLEX> CPXPARAM_Parallel                                -1
CPXPARAM_Simplex_Tolerances_Feasibility          0.01
CPXPARAM_DetTimeLimit                            75000
CPXPARAM_MIP_Tolerances_MIPGap                   0.01
CPXPARAM_MIP_Tolerances_Integrality              1.0000000000000001e-09
Tried aggregator 3 times.
MIP Presolve eliminated 88675 rows and 18971 columns.
MIP Presolve added 3391 rows and 0 columns.
MIP Presolve modified 24877 coefficients.
Aggregator did 13022 substitutions.
Reduced MIP has 24899 rows, 21252 columns, and 71069 nonzeros.
Reduced MIP has 8396 binaries, 0 generals, 0 SOSs, and 0 indicators.
Presolve time = 0.28 sec. (173.95 ticks)
Probing fixed 399 vars, tightened 2836 bounds.
Probing time = 1.22 sec. (884.84 ticks)
Tried aggregator 2 times.
MIP Presolve eliminated 905 rows and 805 columns.
MIP Presolve modified 2185 coefficients.
Aggregator did 39 substitutions.
Reduced MIP has 23955 rows, 20408 columns, and 68332 nonzeros.
Reduced MIP has 7994 binaries, 0 generals, 0 SOSs, and 0 indicators.
Presolve time = 0.11 sec. (69.15 ticks)
Probing time = 0.03 sec. (16.18 ticks)
Clique table members: 6250.
MIP emphasis: balance optimality and feasibility.
MIP search method: dynamic search.
Parallel mode: opportunistic, using up to 32 threads.
Root relaxation solution time = 0.45 sec. (506.43 ticks)

        Nodes                                         Cuts/
   Node  Left     Objective  IInf  Best Integer    Best Bound    ItCnt     Gap

      0     0     1868.3853   639                   1868.3853     6265         
*     0+    0                         1868.3853     1868.3853             0.00%
*     0+    0                         1868.3853     1868.3853             0.00%
      0     0        cutoff           1868.3853     1868.3853     6265    0.00%
Elapsed time = 5.66 sec. (4063.48 ticks, tree = 0.01 MB, solutions = 2)

Root node processing (before b&c):
  Real time             =    5.66 sec. (4065.67 ticks)
Parallel b&c, 32 threads:
  Real time             =    0.00 sec. (0.00 ticks)
  Sync time (average)   =    0.00 sec.
  Wait time (average)   =    0.00 sec.
                          ------------
Total (root+branch&cut) =    5.66 sec. (4065.67 ticks)

Solution pool: 2 solutions saved.

MIP - Integer optimal solution:  Objective =  1.8683852936e+03
Solution time =    5.73 sec.  Iterations = 6265  Nodes = 0
Deterministic time = 4065.82 ticks  (709.07 ticks/sec)

CPLEX> Incumbent solution written to file 'C:\Users\llavin\Desktop\test919\logs\tmpy3n8spxy.cplex.sol'.
CPLEX> NOTE: no warmstart specified for MIP iteration, default behavior is true
NOTE: resolving with all competitive generators using storage-only solution to warmstart
Solving...

Welcome to IBM(R) ILOG(R) CPLEX(R) Interactive Optimizer 12.9.0.0
  with Simplex, Mixed Integer & Barrier Optimizers
5725-A06 5725-A29 5724-Y48 5724-Y49 5724-Y54 5724-Y55 5655-Y21
Copyright IBM Corp. 1988, 2019.  All Rights Reserved.

Type 'help' for a list of available commands.
Type 'help' followed by a command name for more
information on commands.

CPLEX> Logfile 'cplex.log' closed.
Logfile 'C:\Users\llavin\Desktop\test919\logs\tmpcbs4o6x7.cplex.log' open.
CPLEX> New value for parallel optimization mode: -1
CPLEX> New value for mixed integer optimality gap tolerance: 0.01
CPLEX> New value for integrality tolerance: 1e-09
CPLEX> New value for feasibility tolerance: 0.01
CPLEX> New value for deterministic time limit in ticks: 75000
CPLEX> Problem 'C:\Users\llavin\Desktop\test919\logs\tmp79m1bscj.pyomo.lp' read.
Read time = 0.23 sec. (14.81 ticks)
CPLEX> MIP start file 'C:\Users\llavin\Desktop\test919\logs\tmp66aixmhb.cplex.mst' read.
CPLEX> Problem name         : C:\Users\llavin\Desktop\test919\logs\tmp79m1bscj.pyomo.lp
Objective sense      : Maximize
Variables            :   54525  [Nneg: 1,  Box: 22720,  Free: 4464,
                                 Binary: 27340]
Objective nonzeros   :    9669
Linear constraints   :  123205  [Less: 41346,  Greater: 59096,  Equal: 22763]
  Nonzeros           :  291794
  RHS nonzeros       :   67394

Variables            : Min LB: -5000.000        Max UB: 1000000.       
Objective nonzeros   : Min   : 0.05833333       Max   : 781.7417       
Linear constraints   :
  Nonzeros           : Min   : 0.05833333       Max   : 1000000.       
  RHS nonzeros       : Min   : 0.05833333       Max   : 1000000.       
CPLEX> CPXPARAM_Parallel                                -1
CPXPARAM_Simplex_Tolerances_Feasibility          0.01
CPXPARAM_DetTimeLimit                            75000
CPXPARAM_MIP_Tolerances_MIPGap                   0.01
CPXPARAM_MIP_Tolerances_Integrality              1.0000000000000001e-09
Warning:  No solution found from 1 MIP starts.
Retaining values of one MIP start for possible repair.
Tried aggregator 3 times.
MIP Presolve eliminated 88675 rows and 19691 columns.
MIP Presolve added 3391 rows and 0 columns.
MIP Presolve modified 24877 coefficients.
Aggregator did 13022 substitutions.
Reduced MIP has 24899 rows, 21252 columns, and 71069 nonzeros.
Reduced MIP has 8396 binaries, 0 generals, 0 SOSs, and 0 indicators.
Presolve time = 0.30 sec. (174.31 ticks)
Probing fixed 399 vars, tightened 2836 bounds.
Probing time = 1.20 sec. (884.84 ticks)
Tried aggregator 2 times.
MIP Presolve eliminated 905 rows and 805 columns.
MIP Presolve modified 2185 coefficients.
Aggregator did 39 substitutions.
Reduced MIP has 23955 rows, 20408 columns, and 68332 nonzeros.
Reduced MIP has 7994 binaries, 0 generals, 0 SOSs, and 0 indicators.
Presolve time = 0.11 sec. (69.15 ticks)
Probing time = 0.05 sec. (16.18 ticks)
Clique table members: 6250.
MIP emphasis: balance optimality and feasibility.
MIP search method: dynamic search.
Parallel mode: opportunistic, using up to 32 threads.
Root relaxation solution time = 0.36 sec. (272.21 ticks)

        Nodes                                         Cuts/
   Node  Left     Objective  IInf  Best Integer    Best Bound    ItCnt     Gap

      0     0    81315.5493  1711                  81315.5493     6347         
      0     0    77899.0091   682                   Cuts: 488     6643         
      0     0    77235.7046   610                   Cuts: 195     6776         
      0     0    76355.3931   544                   Cuts: 119     6858         
      0     0    76355.3931   508                    Cuts: 91     6911         
      0     0    76355.3931   486                    Cuts: 61     6941         
      0     0    76355.3931   466                    Cuts: 41     6960         
      0     0    70854.9526   478                    Cuts: 51     7108         
      0     0    70852.5177   478                    Cuts: 64     7135         
      0     0    70852.5177   474                    Cuts: 35     7144         
Repair heuristic found nothing.
      0     2    69503.6412   469                    Cuts: 38     7144         
Elapsed time = 11.48 sec. (6574.99 ticks, tree = 0.02 MB, solutions = 0)
    350    61    39625.9482   395                  40832.4579    11465         
    800   492    26871.5773   356                  39743.0141    16114         
   1472   649    26871.5773   353                  39743.0141    25662         
   2219   813    37058.0978   366                  39743.0141    45441         
   2920   952     5867.2173   323                  39743.0141    57321         
   3532  1293    -3010.0210   244                  39743.0141    67029         
   4470  2125     2612.8529   319                  39743.0141    72814         
   5666  3425     8265.4512   307                  39743.0141    75252         
   6770  4576    16460.8351   234                  39743.0141    75703         
*  9376+ 4969                         4834.9486    39743.0141           721.99%
Elapsed time = 27.61 sec. (9466.94 ticks, tree = 37.94 MB, solutions = 3)
* 11461  7548      integral     0     8221.2931    39743.0141    77520  383.42%
* 12329     0      integral     0     8221.2931                  86362     --- 

Clique cuts applied:  3
Cover cuts applied:  8
Implied bound cuts applied:  26
Flow cuts applied:  365
Mixed integer rounding cuts applied:  41
Gomory fractional cuts applied:  56

Root node processing (before b&c):
  Real time             =    9.31 sec. (6527.29 ticks)
Parallel b&c, 32 threads:
  Real time             =   24.44 sec. (7157.67 ticks)
  Sync time (average)   =    1.46 sec.
  Wait time (average)   =    0.00 sec.
                          ------------
Total (root+branch&cut) =   33.75 sec. (13684.97 ticks)

Solution pool: 7 solutions saved.

MIP - Integer optimal solution:  Objective =  8.2212931363e+03
Solution time =   33.77 sec.  Iterations = 86362  Nodes = 12329
Deterministic time = 13685.12 ticks  (405.29 ticks/sec)

CPLEX> Incumbent solution written to file 'C:\Users\llavin\Desktop\test919\logs\tmpd9kvfrqs.cplex.sol'.
CPLEX> Exporting results... 
